(set-logic QF_UF)
(declare-fun A0 () Bool)
(declare-fun A1 () Bool)
(declare-fun A2 () Bool)
(declare-fun A3 () Bool)
(declare-fun A4 () Bool)
(declare-fun A5 () Bool)
(declare-fun A6 () Bool)
(declare-fun A7 () Bool)
(declare-fun A9 () Bool)
(declare-fun A10 () Bool)
(declare-fun A11 () Bool)
(declare-fun A12 () Bool)
(declare-fun A14 () Bool)
(declare-fun A15 () Bool)
(declare-fun A16 () Bool)
(declare-fun A17 () Bool)
(declare-fun A19 () Bool)
(declare-fun A20 () Bool)
(declare-fun A21 () Bool)
(declare-fun A24 () Bool)
(declare-fun A25 () Bool)
(declare-fun A26 () Bool)
(declare-fun A27 () Bool)
(declare-fun A28 () Bool)
(declare-fun A29 () Bool)
(assert (let ((.def_0 (or A1 A7))) (let ((.def_1 (not A14))) (let ((.def_2 (= A17 .def_1))) (let ((.def_3 (not .def_2))) (let ((.def_4 (= .def_3 .def_0))) (let ((.def_5 (not A6))) (let ((.def_6 (not A28))) (let ((.def_7 (and .def_6 .def_5))) (let ((.def_8 (not A25))) (let ((.def_9 (not A20))) (let ((.def_10 (and .def_9 .def_8))) (let ((.def_11 (and .def_10 .def_7))) (let ((.def_12 (and .def_11 .def_4))) (let ((.def_13 (not .def_12))) (let ((.def_14 (not A4))) (let ((.def_15 (or A15 .def_14))) (let ((.def_16 (or A3 A25))) (let ((.def_17 (not .def_16))) (let ((.def_18 (and .def_17 .def_15))) (let ((.def_19 (not .def_18))) (let ((.def_20 (and A26 A0))) (let ((.def_21 (not A5))) (let ((.def_22 (or A5 .def_21))) (let ((.def_23 (or .def_22 .def_20))) (let ((.def_24 (not .def_23))) (let ((.def_25 (= .def_24 .def_19))) (let ((.def_26 (and .def_25 .def_13))) (let ((.def_27 (not .def_26))) (let ((.def_28 (not A3))) (let ((.def_29 (and A14 .def_28))) (let ((.def_30 (not .def_29))) (let ((.def_31 (not A27))) (let ((.def_32 (and A5 .def_31))) (let ((.def_33 (or .def_32 .def_30))) (let ((.def_34 (not .def_33))) (let ((.def_35 (or A24 A29))) (let ((.def_36 (not .def_35))) (let ((.def_37 (not A29))) (let ((.def_38 (or A24 .def_37))) (let ((.def_39 (not .def_38))) (let ((.def_40 (or .def_39 .def_36))) (let ((.def_41 (= .def_40 .def_34))) (let ((.def_42 (not .def_41))) (let ((.def_43 (or A2 A21))) (let ((.def_44 (or A1 A19))) (let ((.def_45 (not .def_44))) (let ((.def_46 (and .def_45 .def_43))) (let ((.def_47 (not .def_46))) (let ((.def_48 (not A12))) (let ((.def_49 (not A11))) (let ((.def_50 (and .def_49 .def_48))) (let ((.def_51 (not .def_50))) (let ((.def_52 (or A5 A20))) (let ((.def_53 (and .def_52 .def_51))) (let ((.def_54 (or .def_53 .def_47))) (let ((.def_55 (not .def_54))) (let ((.def_56 (or .def_55 .def_42))) (let ((.def_57 (not .def_56))) (let ((.def_58 (or .def_57 .def_27))) (let ((.def_59 (not .def_58))) (let ((.def_60 (not A24))) (let ((.def_61 (or .def_60 A16))) (let ((.def_62 (or .def_31 .def_1))) (let ((.def_63 (not .def_62))) (let ((.def_64 (or .def_63 .def_61))) (let ((.def_65 (not A9))) (let ((.def_66 (or A28 .def_65))) (let ((.def_67 (not .def_66))) (let ((.def_68 (not A2))) (let ((.def_69 (or .def_68 .def_65))) (let ((.def_70 (and .def_69 .def_67))) (let ((.def_71 (and .def_70 .def_64))) (let ((.def_72 (and .def_37 .def_1))) (let ((.def_73 (not A1))) (let ((.def_74 (and .def_73 .def_1))) (let ((.def_75 (not .def_74))) (let ((.def_76 (or .def_75 .def_72))) (let ((.def_77 (not .def_76))) (let ((.def_78 (not A26))) (let ((.def_79 (not A10))) (let ((.def_80 (or .def_79 .def_78))) (let ((.def_81 (and A21 A2))) (let ((.def_82 (and .def_81 .def_80))) (let ((.def_83 (= .def_82 .def_77))) (let ((.def_84 (not .def_83))) (let ((.def_85 (or .def_84 .def_71))) (let ((.def_86 (not .def_85))) (let ((.def_87 (and A25 .def_28))) (let ((.def_88 (not .def_87))) (let ((.def_89 (or A0 A17))) (let ((.def_90 (and .def_89 .def_88))) (let ((.def_91 (not .def_90))) (let ((.def_92 (and A17 .def_6))) (let ((.def_93 (or .def_6 A16))) (let ((.def_94 (or .def_93 .def_92))) (let ((.def_95 (or .def_94 .def_91))) (let ((.def_96 (not .def_95))) (let ((.def_97 (and A12 .def_5))) (let ((.def_98 (not .def_97))) (let ((.def_99 (and .def_5 A2))) (let ((.def_100 (not .def_99))) (let ((.def_101 (or .def_100 .def_98))) (let ((.def_102 (not .def_101))) (let ((.def_103 (and A3 .def_31))) (let ((.def_104 (not .def_103))) (let ((.def_105 (and .def_31 A9))) (let ((.def_106 (not .def_105))) (let ((.def_107 (and .def_106 .def_104))) (let ((.def_108 (or .def_107 .def_102))) (let ((.def_109 (and .def_108 .def_96))) (let ((.def_110 (or .def_109 .def_86))) (let ((.def_111 (not .def_110))) (let ((.def_112 (and .def_111 .def_59))) .def_112))))))))))))))))))))))))))))))))))))))))))))))))))))))))))))))))))))))))))))))))))))))))))))))))))))))))))))))))))
(check-sat)
